# Solution for model count
# Objective value = 10
z#1 1
z#2 0
z#3 0
z#4 0
z#5 1
z#6 0
z#7 1
z#8 1
z#9 0
z#10 0
z#11 0
z#12 1
z#13 1
z#14 0
z#15 0
z#16 0
z#17 1
z#18 1
z#19 0
z#20 1
z#21 0
z#22 0
z#23 1
z#24 0
x#24 0
x#23 290
x#22 0
x#21 0
x#20 1687
x#19 0
x#18 2948
x#17 1244
x#16 0
x#15 0
x#14 0
x#13 224
x#12 139
x#11 0
x#10 0
x#9 0
x#8 954
x#7 1805
x#6 0
x#5 492
x#4 0
x#3 0
x#2 0
x#1 217
